DIMACS_lns/graph-1000-331.col
p edge 1000 1843
e 2 290
e 2 628
e 2 203
e 2 177
e 4 352
e 4 753
e 4 971
e 4 515
e 4 226
e 5 819
e 5 885
e 5 399
e 5 934
e 5 339
e 6 518
e 6 560
e 6 117
e 6 402
e 6 424
e 9 557
e 9 734
e 9 477
e 9 578
e 10 282
e 10 235
e 10 924
e 10 829
e 10 395
e 11 32
e 11 273
e 11 133
e 11 837
e 11 88
e 11 13
e 12 388
e 12 941
e 12 591
e 12 496
e 13 505
e 13 838
e 13 236
e 15 96
e 15 397
e 15 855
e 15 787
e 16 449
e 16 319
e 16 881
e 16 39
e 16 831
e 17 853
e 17 469
e 17 273
e 18 627
e 18 622
e 18 367
e 18 409
e 18 446
e 18 868
e 19 137
e 19 71
e 19 242
e 22 917
e 22 731
e 22 150
e 22 796
e 22 635
e 23 604
e 23 190
e 23 930
e 24 241
e 24 763
e 24 687
e 25 800
e 25 222
e 25 764
e 26 567
e 26 505
e 26 579
e 27 219
e 27 598
e 27 761
e 27 966
e 27 164
e 28 514
e 28 626
e 28 829
e 29 437
e 29 599
e 29 292
e 29 206
e 29 285
e 32 277
e 32 730
e 32 426
e 33 114
e 33 783
e 33 423
e 33 996
e 33 638
e 34 620
e 34 586
e 34 807
e 35 526
e 35 325
e 35 523
e 35 137
e 35 50
e 36 460
e 36 82
e 36 583
e 36 861
e 36 222
e 36 295
e 37 268
e 37 319
e 37 637
e 37 231
e 37 377
e 37 962
e 38 281
e 38 953
e 38 946
e 38 741
e 38 863
e 38 686
e 39 664
e 39 117
e 39 278
e 41 915
e 41 550
e 41 99
e 41 721
e 41 850
e 41 941
e 42 522
e 42 586
e 42 262
e 43 679
e 43 134
e 43 285
e 44 632
e 44 397
e 44 622
e 44 369
e 44 970
e 45 679
e 45 767
e 45 818
e 45 395
e 45 594
e 47 162
e 47 182
e 47 188
e 47 75
e 48 667
e 48 773
e 48 765
e 48 83
e 49 576
e 49 691
e 49 412
e 50 381
e 50 812
e 51 469
e 51 537
e 51 161
e 51 916
e 51 585
e 52 365
e 52 147
e 52 921
e 52 940
e 52 967
e 53 952
e 53 84
e 53 693
e 54 882
e 54 728
e 54 577
e 54 612
e 54 566
e 54 486
e 55 769
e 55 364
e 55 947
e 55 273
e 55 685
e 57 646
e 57 914
e 57 819
e 57 798
e 59 359
e 59 82
e 59 798
e 59 996
e 59 604
e 60 524
e 60 921
e 60 592
e 60 388
e 61 290
e 61 158
e 61 649
e 61 114
e 61 78
e 61 258
e 61 486
e 61 800
e 62 323
e 62 374
e 62 344
e 62 792
e 62 930
e 62 747
e 64 637
e 64 835
e 64 355
e 64 129
e 68 882
e 68 230
e 68 696
e 68 242
e 69 742
e 69 734
e 69 780
e 70 885
e 70 968
e 70 205
e 70 981
e 71 376
e 71 998
e 71 567
e 73 664
e 73 93
e 73 986
e 73 537
e 73 819
e 73 747
e 74 552
e 74 963
e 74 221
e 74 239
e 74 436
e 75 422
e 75 326
e 75 524
e 78 422
e 78 551
e 78 938
e 78 351
e 78 219
e 78 96
e 80 685
e 80 483
e 80 94
e 80 950
e 81 482
e 81 128
e 81 464
e 81 683
e 81 224
e 81 429
e 82 433
e 82 336
e 82 476
e 82 352
e 83 768
e 83 598
e 83 494
e 83 304
e 83 705
e 83 229
e 83 106
e 84 231
e 84 560
e 84 562
e 84 542
e 84 857
e 85 118
e 85 867
e 85 744
e 85 917
e 86 924
e 86 90
e 86 891
e 86 821
e 88 163
e 88 539
e 88 650
e 88 593
e 88 727
e 88 477
e 88 944
e 90 808
e 90 830
e 90 589
e 90 728
e 90 388
e 90 356
e 90 787
e 90 214
e 92 819
e 92 649
e 92 917
e 93 696
e 93 818
e 93 209
e 93 150
e 94 602
e 94 211
e 94 209
e 94 903
e 96 982
e 99 157
e 99 790
e 99 750
e 99 484
e 99 214
e 99 929
e 99 183
e 100 410
e 100 915
e 100 121
e 100 666
e 101 175
e 101 306
e 101 488
e 101 197
e 104 898
e 104 460
e 104 763
e 104 948
e 104 584
e 104 549
e 106 447
e 106 259
e 106 465
e 106 975
e 106 531
e 106 544
e 106 559
e 106 852
e 110 726
e 110 502
e 110 365
e 110 171
e 110 503
e 111 839
e 111 609
e 111 453
e 111 129
e 111 811
e 111 817
e 112 907
e 112 355
e 112 179
e 112 604
e 113 510
e 113 524
e 113 192
e 113 634
e 113 626
e 113 432
e 114 296
e 114 234
e 114 833
e 115 667
e 115 860
e 115 168
e 117 900
e 117 507
e 117 203
e 117 127
e 118 207
e 118 227
e 118 916
e 118 463
e 118 123
e 120 223
e 120 583
e 120 219
e 120 941
e 120 502
e 120 956
e 120 211
e 121 622
e 121 320
e 121 766
e 122 387
e 122 962
e 122 580
e 123 626
e 123 246
e 123 418
e 123 574
e 123 741
e 125 840
e 125 705
e 125 314
e 127 352
e 127 380
e 127 334
e 128 355
e 128 248
e 128 470
e 128 486
e 129 848
e 129 952
e 129 684
e 130 167
e 130 979
e 130 449
e 131 462
e 131 766
e 131 628
e 131 510
e 131 402
e 131 779
e 131 525
e 133 761
e 133 912
e 133 666
e 133 664
e 133 301
e 133 587
e 133 139
e 134 481
e 134 510
e 135 433
e 135 589
e 135 496
e 135 309
e 135 360
e 135 862
e 136 237
e 136 668
e 136 140
e 137 479
e 137 888
e 137 454
e 138 341
e 138 877
e 138 511
e 138 887
e 138 790
e 138 299
e 139 151
e 139 683
e 139 957
e 139 984
e 140 985
e 140 627
e 140 722
e 140 690
e 140 378
e 140 278
e 140 708
e 140 310
e 141 869
e 141 484
e 141 839
e 141 448
e 141 510
e 143 916
e 143 255
e 143 452
e 143 381
e 144 402
e 144 391
e 144 352
e 144 785
e 145 339
e 145 994
e 145 491
e 147 161
e 147 241
e 147 840
e 147 590
e 150 552
e 150 394
e 150 848
e 150 559
e 150 833
e 151 953
e 151 447
e 152 971
e 152 507
e 152 401
e 152 399
e 153 355
e 153 313
e 153 447
e 153 781
e 154 356
e 154 338
e 154 251
e 154 704
e 155 709
e 155 660
e 155 814
e 155 253
e 155 245
e 156 923
e 156 785
e 156 159
e 156 266
e 156 830
e 157 742
e 157 627
e 157 950
e 157 807
e 157 887
e 157 755
e 158 177
e 158 610
e 158 648
e 159 296
e 159 934
e 159 562
e 159 820
e 159 309
e 159 327
e 160 818
e 160 311
e 160 574
e 160 171
e 161 997
e 161 579
e 162 382
e 162 839
e 163 655
e 163 429
e 163 552
e 164 928
e 164 653
e 167 593
e 167 783
e 167 316
e 167 836
e 168 553
e 168 628
e 168 798
e 169 339
e 169 527
e 169 860
e 169 502
e 169 761
e 170 747
e 170 803
e 170 421
e 170 541
e 171 391
e 171 903
e 171 484
e 171 454
e 171 856
e 173 554
e 173 436
e 173 317
e 173 990
e 173 485
e 175 448
e 175 545
e 175 806
e 175 966
e 175 644
e 175 684
e 177 586
e 179 549
e 179 727
e 179 953
e 181 224
e 181 523
e 181 324
e 181 827
e 181 254
e 181 582
e 182 682
e 182 297
e 182 543
e 182 358
e 182 498
e 182 455
e 183 551
e 183 232
e 183 749
e 184 781
e 184 559
e 184 712
e 185 503
e 185 417
e 185 231
e 185 375
e 188 921
e 188 851
e 188 970
e 188 310
e 188 406
e 189 346
e 189 585
e 189 323
e 190 500
e 190 776
e 190 892
e 190 997
e 190 278
e 192 254
e 192 673
e 192 439
e 193 388
e 193 616
e 193 406
e 193 598
e 193 657
e 197 228
e 197 886
e 197 702
e 197 731
e 198 767
e 198 385
e 198 340
e 198 938
e 199 385
e 199 637
e 199 700
e 199 615
e 201 527
e 201 687
e 201 793
e 203 815
e 203 823
e 205 425
e 205 333
e 205 616
e 206 942
e 206 916
e 206 545
e 206 713
e 206 971
e 207 380
e 207 449
e 207 706
e 207 540
e 207 963
e 207 403
e 207 425
e 208 792
e 208 377
e 208 956
e 209 811
e 211 432
e 211 808
e 211 401
e 211 967
e 211 266
e 211 614
e 213 575
e 213 273
e 213 299
e 213 359
e 213 862
e 213 592
e 213 237
e 213 361
e 213 261
e 214 483
e 215 383
e 215 229
e 215 742
e 215 898
e 216 998
e 216 600
e 216 692
e 216 315
e 218 900
e 218 737
e 218 358
e 219 818
e 219 419
e 219 247
e 219 313
e 220 449
e 220 377
e 220 442
e 221 723
e 221 363
e 221 296
e 222 796
e 222 496
e 222 956
e 222 522
e 222 304
e 222 308
e 222 258
e 223 726
e 223 296
e 224 504
e 224 828
e 224 370
e 224 773
e 225 607
e 225 822
e 225 794
e 225 975
e 226 740
e 226 635
e 227 793
e 227 827
e 227 968
e 227 763
e 228 425
e 228 484
e 228 738
e 228 986
e 229 908
e 229 697
e 230 313
e 230 286
e 231 869
e 231 588
e 231 933
e 231 470
e 231 664
e 231 431
e 232 935
e 232 361
e 232 309
e 233 775
e 233 234
e 233 295
e 233 951
e 234 605
e 234 812
e 235 463
e 235 786
e 235 881
e 235 262
e 235 522
e 236 622
e 236 452
e 236 544
e 236 516
e 236 507
e 237 583
e 237 680
e 239 530
e 239 265
e 239 966
e 239 503
e 240 692
e 240 954
e 240 560
e 241 973
e 241 589
e 241 932
e 241 591
e 242 401
e 242 979
e 242 660
e 242 822
e 243 750
e 243 942
e 243 490
e 243 479
e 243 327
e 243 270
e 243 929
e 244 609
e 244 332
e 244 693
e 244 957
e 245 595
e 245 809
e 245 680
e 245 307
e 245 949
e 246 957
e 246 374
e 246 449
e 246 992
e 246 401
e 246 569
e 247 256
e 247 494
e 247 505
e 247 417
e 248 359
e 248 438
e 248 934
e 248 628
e 248 520
e 250 875
e 250 666
e 250 973
e 251 987
e 251 317
e 251 412
e 252 988
e 252 478
e 252 442
e 252 255
e 253 439
e 253 511
e 253 431
e 253 612
e 254 677
e 254 956
e 254 294
e 254 525
e 254 809
e 255 326
e 255 612
e 256 934
e 256 670
e 256 354
e 258 676
e 258 362
e 258 908
e 259 881
e 259 763
e 259 727
e 259 408
e 259 815
e 259 756
e 259 905
e 260 562
e 260 551
e 260 596
e 260 545
e 261 592
e 261 826
e 261 558
e 261 963
e 261 485
e 261 825
e 261 880
e 261 443
e 261 511
e 261 452
e 262 848
e 264 341
e 264 990
e 264 926
e 265 378
e 265 443
e 266 720
e 266 433
e 268 706
e 268 557
e 268 494
e 268 648
e 268 864
e 268 424
e 270 390
e 270 834
e 270 716
e 271 647
e 271 949
e 271 755
e 272 796
e 272 635
e 272 505
e 272 900
e 272 292
e 272 738
e 273 380
e 273 892
e 273 446
e 273 748
e 273 281
e 273 794
e 273 642
e 276 559
e 276 917
e 276 526
e 277 488
e 277 406
e 278 834
e 278 611
e 279 410
e 279 525
e 279 502
e 279 339
e 279 370
e 279 319
e 281 596
e 282 513
e 282 647
e 282 881
e 282 748
e 282 508
e 285 834
e 285 500
e 285 390
e 285 833
e 285 752
e 285 825
e 286 765
e 286 856
e 286 503
e 286 788
e 289 339
e 289 621
e 289 827
e 290 478
e 290 557
e 292 534
e 293 823
e 293 994
e 293 898
e 293 378
e 293 465
e 294 315
e 294 804
e 294 313
e 294 745
e 295 383
e 295 513
e 296 542
e 296 785
e 296 966
e 296 692
e 296 569
e 297 612
e 297 812
e 297 674
e 297 498
e 299 973
e 299 733
e 301 314
e 301 653
e 301 863
e 301 490
e 304 491
e 304 426
e 304 823
e 304 365
e 306 440
e 306 998
e 306 344
e 307 713
e 307 595
e 308 389
e 308 691
e 309 642
e 309 544
e 310 317
e 310 378
e 310 797
e 310 490
e 310 601
e 311 757
e 311 369
e 311 779
e 313 408
e 313 418
e 313 327
e 313 968
e 313 594
e 314 595
e 314 948
e 314 636
e 314 689
e 315 705
e 315 437
e 315 752
e 316 747
e 316 646
e 317 926
e 317 611
e 319 723
e 319 902
e 319 329
e 320 764
e 320 474
e 320 597
e 320 488
e 323 815
e 324 856
e 324 598
e 324 488
e 324 394
e 325 650
e 325 459
e 326 958
e 327 517
e 327 706
e 329 564
e 329 962
e 329 941
e 329 696
e 330 685
e 330 952
e 330 680
e 330 766
e 331 671
e 331 401
e 331 501
e 331 668
e 331 387
e 332 431
e 332 860
e 333 744
e 333 615
e 334 853
e 334 449
e 334 977
e 336 408
e 336 708
e 336 339
e 336 938
e 337 928
e 337 883
e 337 380
e 338 648
e 338 535
e 338 977
e 339 520
e 339 660
e 339 924
e 340 993
e 340 430
e 341 990
e 342 886
e 342 493
e 342 820
e 342 800
e 342 360
e 342 551
e 343 668
e 343 930
e 343 423
e 343 811
e 343 642
e 343 765
e 344 843
e 344 819
e 344 367
e 345 606
e 345 994
e 345 950
e 345 482
e 345 723
e 345 397
e 345 803
e 346 862
e 346 749
e 348 758
e 348 552
e 348 403
e 348 360
e 351 550
e 351 576
e 351 732
e 351 951
e 351 660
e 351 647
e 351 584
e 352 828
e 352 923
e 352 966
e 352 567
e 352 690
e 352 444
e 353 817
e 353 513
e 353 558
e 353 863
e 354 388
e 354 715
e 354 567
e 354 788
e 355 731
e 355 977
e 355 588
e 355 430
e 355 680
e 356 471
e 356 364
e 356 424
e 356 584
e 356 477
e 356 690
e 357 588
e 357 826
e 357 803
e 357 452
e 357 764
e 358 981
e 358 776
e 358 745
e 358 482
e 359 980
e 359 557
e 359 507
e 359 442
e 359 676
e 359 899
e 360 713
e 360 635
e 361 407
e 361 712
e 361 866
e 361 737
e 362 828
e 362 814
e 362 690
e 362 450
e 363 958
e 363 517
e 363 829
e 363 487
e 364 668
e 364 368
e 364 827
e 364 930
e 365 590
e 365 880
e 365 956
e 366 721
e 366 427
e 366 512
e 367 934
e 368 951
e 368 652
e 368 879
e 369 463
e 369 430
e 370 666
e 370 701
e 374 734
e 374 885
e 374 513
e 374 680
e 374 924
e 375 690
e 375 857
e 376 544
e 376 794
e 376 450
e 377 792
e 377 936
e 377 737
e 377 450
e 377 940
e 378 977
e 378 446
e 378 587
e 380 478
e 380 610
e 381 821
e 381 750
e 382 427
e 382 957
e 383 877
e 383 482
e 385 410
e 385 660
e 387 567
e 387 503
e 387 580
e 387 418
e 387 598
e 387 516
e 387 751
e 387 530
e 388 806
e 388 721
e 388 607
e 388 907
e 388 814
e 388 686
e 389 904
e 389 903
e 389 988
e 390 972
e 390 514
e 390 877
e 390 430
e 391 513
e 391 520
e 391 691
e 394 575
e 394 991
e 395 676
e 396 740
e 396 792
e 396 427
e 397 638
e 397 866
e 397 675
e 399 531
e 399 601
e 399 612
e 401 899
e 401 709
e 401 748
e 401 837
e 402 575
e 402 797
e 402 951
e 403 815
e 403 767
e 404 558
e 404 988
e 404 666
e 406 939
e 406 893
e 406 633
e 407 788
e 407 940
e 408 812
e 408 924
e 409 783
e 409 648
e 409 511
e 410 702
e 410 525
e 410 815
e 412 683
e 412 656
e 412 588
e 412 827
e 417 891
e 417 483
e 417 689
e 418 445
e 418 852
e 418 829
e 419 660
e 419 549
e 419 868
e 421 730
e 421 900
e 422 474
e 422 522
e 423 635
e 423 726
e 424 904
e 424 742
e 425 602
e 425 593
e 426 655
e 427 608
e 427 652
e 427 543
e 427 432
e 429 952
e 430 655
e 431 598
e 432 454
e 432 590
e 432 643
e 432 462
e 432 627
e 432 465
e 433 701
e 433 877
e 434 485
e 434 880
e 434 715
e 434 506
e 436 908
e 436 993
e 437 476
e 437 732
e 437 677
e 437 872
e 438 738
e 438 459
e 439 482
e 439 819
e 439 716
e 439 591
e 439 751
e 439 936
e 440 921
e 440 535
e 440 817
e 440 962
e 443 614
e 443 765
e 443 584
e 444 621
e 444 996
e 445 446
e 445 785
e 447 470
e 447 562
e 447 448
e 448 839
e 448 553
e 448 641
e 448 650
e 449 829
e 449 790
e 450 984
e 450 748
e 450 860
e 450 580
e 450 526
e 452 830
e 452 684
e 453 656
e 453 841
e 454 650
e 454 845
e 454 769
e 455 580
e 455 667
e 455 758
e 456 524
e 456 916
e 456 780
e 456 670
e 459 721
e 459 745
e 459 933
e 459 904
e 460 814
e 460 643
e 462 894
e 463 496
e 463 734
e 464 989
e 464 821
e 464 823
e 464 915
e 465 641
e 465 997
e 465 804
e 469 481
e 469 682
e 470 985
e 470 908
e 471 861
e 471 745
e 471 902
e 471 741
e 472 779
e 472 600
e 472 677
e 474 488
e 474 863
e 475 705
e 475 565
e 475 549
e 476 935
e 476 992
e 476 944
e 477 757
e 478 796
e 478 892
e 478 692
e 478 954
e 479 576
e 481 520
e 481 741
e 482 716
e 482 695
e 483 891
e 483 843
e 483 560
e 484 912
e 484 620
e 486 817
e 486 670
e 486 682
e 487 524
e 487 585
e 488 691
e 488 653
e 488 514
e 488 786
e 490 765
e 491 601
e 493 987
e 493 695
e 494 670
e 494 540
e 494 510
e 496 700
e 497 545
e 497 671
e 497 704
e 498 948
e 498 861
e 500 502
e 500 582
e 501 785
e 501 798
e 501 599
e 502 951
e 503 559
e 503 823
e 503 806
e 503 644
e 504 814
e 504 626
e 505 584
e 505 600
e 505 716
e 505 752
e 505 758
e 506 734
e 506 755
e 506 740
e 506 594
e 507 841
e 507 599
e 507 857
e 507 541
e 507 597
e 507 987
e 508 934
e 508 950
e 508 654
e 510 527
e 511 830
e 511 592
e 511 762
e 512 569
e 512 893
e 512 612
e 513 926
e 514 788
e 515 804
e 515 868
e 515 768
e 515 733
e 515 963
e 516 851
e 517 675
e 517 818
e 518 969
e 518 940
e 518 650
e 520 970
e 522 961
e 522 564
e 522 695
e 522 709
e 523 608
e 523 949
e 523 812
e 523 637
e 524 673
e 524 530
e 524 719
e 524 732
e 525 937
e 525 807
e 527 685
e 527 687
e 527 730
e 530 583
e 531 904
e 534 852
e 534 700
e 535 605
e 537 769
e 537 908
e 539 895
e 539 905
e 539 645
e 540 984
e 540 733
e 541 559
e 542 943
e 542 705
e 543 599
e 543 737
e 543 782
e 543 700
e 543 993
e 543 645
e 544 795
e 544 627
e 545 988
e 545 885
e 549 900
e 549 654
e 549 891
e 550 675
e 550 996
e 551 875
e 551 808
e 551 949
e 551 867
e 551 811
e 552 864
e 553 975
e 553 744
e 554 744
e 554 674
e 557 866
e 557 612
e 558 916
e 558 793
e 562 641
e 564 721
e 564 961
e 565 632
e 565 952
e 565 635
e 566 686
e 566 584
e 567 933
e 567 653
e 569 823
e 569 966
e 569 803
e 574 709
e 574 745
e 575 638
e 577 836
e 577 579
e 578 681
e 578 580
e 578 728
e 578 727
e 579 795
e 580 681
e 580 797
e 580 883
e 580 856
e 581 620
e 581 705
e 581 885
e 582 941
e 582 814
e 582 622
e 583 819
e 584 782
e 584 877
e 584 820
e 585 598
e 586 795
e 587 769
e 587 712
e 587 753
e 588 835
e 588 700
e 589 745
e 590 817
e 590 595
e 591 633
e 591 706
e 591 977
e 592 943
e 593 655
e 594 655
e 594 761
e 595 812
e 595 602
e 596 644
e 597 829
e 597 798
e 598 927
e 598 709
e 599 806
e 599 875
e 599 604
e 599 828
e 601 697
e 601 839
e 604 947
e 604 815
e 604 886
e 604 708
e 605 606
e 605 879
e 606 652
e 607 914
e 607 675
e 608 776
e 609 633
e 609 905
e 610 873
e 610 650
e 611 731
e 612 786
e 612 709
e 614 657
e 615 863
e 616 734
e 619 961
e 619 712
e 619 765
e 621 962
e 622 769
e 622 786
e 622 933
e 626 750
e 628 818
e 631 691
e 631 948
e 631 765
e 631 826
e 632 689
e 633 776
e 634 666
e 634 828
e 635 727
e 635 988
e 635 836
e 636 807
e 636 981
e 637 949
e 637 992
e 637 701
e 638 887
e 641 892
e 641 831
e 643 715
e 643 841
e 643 728
e 645 856
e 646 914
e 648 914
e 649 769
e 649 895
e 650 738
e 651 714
e 651 755
e 651 753
e 651 877
e 651 804
e 652 681
e 652 756
e 652 902
e 653 679
e 653 937
e 653 898
e 654 826
e 654 991
e 656 944
e 657 916
e 657 800
e 664 894
e 664 700
e 664 994
e 667 834
e 667 861
e 671 792
e 671 997
e 671 994
e 673 891
e 673 946
e 674 942
e 675 969
e 675 785
e 676 751
e 676 872
e 680 839
e 680 762
e 680 895
e 680 696
e 682 850
e 683 768
e 685 866
e 685 719
e 686 748
e 687 908
e 687 780
e 688 817
e 688 786
e 688 968
e 689 975
e 689 949
e 690 894
e 690 984
e 691 798
e 691 967
e 693 894
e 693 722
e 693 932
e 695 852
e 695 829
e 697 848
e 697 815
e 700 986
e 700 934
e 702 970
e 704 986
e 705 949
e 705 952
e 706 869
e 706 944
e 708 721
e 710 720
e 710 793
e 710 792
e 712 888
e 712 819
e 713 903
e 713 839
e 714 975
e 714 749
e 715 819
e 716 741
e 719 758
e 719 855
e 720 818
e 722 940
e 722 845
e 723 933
e 723 953
e 726 835
e 726 867
e 727 902
e 728 940
e 728 927
e 730 937
e 732 767
e 732 792
e 733 954
e 733 893
e 734 982
e 737 752
e 740 788
e 742 892
e 742 957
e 745 798
e 748 822
e 749 755
e 750 937
e 753 958
e 753 783
e 753 917
e 755 845
e 755 981
e 756 927
e 757 839
e 757 939
e 757 969
e 758 775
e 758 969
e 762 977
e 763 780
e 764 788
e 764 806
e 764 863
e 766 790
e 767 972
e 773 880
e 773 841
e 773 809
e 775 795
e 775 895
e 776 930
e 781 851
e 781 840
e 782 827
e 782 912
e 783 996
e 786 967
e 787 880
e 787 877
e 788 904
e 790 812
e 792 894
e 792 853
e 793 967
e 793 979
e 793 945
e 793 887
e 795 905
e 797 803
e 798 875
e 798 943
e 798 815
e 800 821
e 803 992
e 806 853
e 807 872
e 811 957
e 812 973
e 815 852
e 817 880
e 820 990
e 822 827
e 825 829
e 825 982
e 826 882
e 828 900
e 828 880
e 830 879
e 831 837
e 837 992
e 838 997
e 838 883
e 838 962
e 843 923
e 845 936
e 848 893
e 848 987
e 850 863
e 853 917
e 853 954
e 855 949
e 856 980
e 856 914
e 857 899
e 860 947
e 861 994
e 864 867
e 866 907
e 867 898
e 873 972
e 873 891
e 877 891
e 879 945
e 879 885
e 880 997
e 888 937
e 893 963
e 893 916
e 894 951
e 898 934
e 900 958
e 903 928
e 915 966
e 916 942
e 916 924
e 921 989
e 923 985
e 924 980
e 929 953
e 929 989
e 929 987
e 932 993
e 935 936
e 939 946
e 944 998
e 945 950
e 946 954
e 958 991
e 962 968
e 972 975
e 979 985
e 990 998
