txt_Ins/graph-1000-331.txt
n 1000
e 1 289
e 1 627
e 1 202
e 1 176
e 3 351
e 3 752
e 3 970
e 3 514
e 3 225
e 4 818
e 4 884
e 4 398
e 4 933
e 4 338
e 5 517
e 5 559
e 5 116
e 5 401
e 5 423
e 8 556
e 8 733
e 8 476
e 8 577
e 9 281
e 9 234
e 9 923
e 9 828
e 9 394
e 10 31
e 10 272
e 10 132
e 10 836
e 10 87
e 10 12
e 11 387
e 11 940
e 11 590
e 11 495
e 12 504
e 12 837
e 12 235
e 14 95
e 14 396
e 14 854
e 14 786
e 15 448
e 15 318
e 15 880
e 15 38
e 15 830
e 16 852
e 16 468
e 16 272
e 17 626
e 17 621
e 17 366
e 17 408
e 17 445
e 17 867
e 18 136
e 18 70
e 18 241
e 21 916
e 21 730
e 21 149
e 21 795
e 21 634
e 22 603
e 22 189
e 22 929
e 23 240
e 23 762
e 23 686
e 24 799
e 24 221
e 24 763
e 25 566
e 25 504
e 25 578
e 26 218
e 26 597
e 26 760
e 26 965
e 26 163
e 27 513
e 27 625
e 27 828
e 28 436
e 28 598
e 28 291
e 28 205
e 28 284
e 31 276
e 31 729
e 31 425
e 32 113
e 32 782
e 32 422
e 32 995
e 32 637
e 33 619
e 33 585
e 33 806
e 34 525
e 34 324
e 34 522
e 34 136
e 34 49
e 35 459
e 35 81
e 35 582
e 35 860
e 35 221
e 35 294
e 36 267
e 36 318
e 36 636
e 36 230
e 36 376
e 36 961
e 37 280
e 37 952
e 37 945
e 37 740
e 37 862
e 37 685
e 38 663
e 38 116
e 38 277
e 40 914
e 40 549
e 40 98
e 40 720
e 40 849
e 40 940
e 41 521
e 41 585
e 41 261
e 42 678
e 42 133
e 42 284
e 43 631
e 43 396
e 43 621
e 43 368
e 43 969
e 44 678
e 44 766
e 44 817
e 44 394
e 44 593
e 46 161
e 46 181
e 46 187
e 46 74
e 47 666
e 47 772
e 47 764
e 47 82
e 48 575
e 48 690
e 48 411
e 49 380
e 49 811
e 50 468
e 50 536
e 50 160
e 50 915
e 50 584
e 51 364
e 51 146
e 51 920
e 51 939
e 51 966
e 52 951
e 52 83
e 52 692
e 53 881
e 53 727
e 53 576
e 53 611
e 53 565
e 53 485
e 54 768
e 54 363
e 54 946
e 54 272
e 54 684
e 56 645
e 56 913
e 56 818
e 56 797
e 58 358
e 58 81
e 58 797
e 58 995
e 58 603
e 59 523
e 59 920
e 59 591
e 59 387
e 60 289
e 60 157
e 60 648
e 60 113
e 60 77
e 60 257
e 60 485
e 60 799
e 61 322
e 61 373
e 61 343
e 61 791
e 61 929
e 61 746
e 63 636
e 63 834
e 63 354
e 63 128
e 67 881
e 67 229
e 67 695
e 67 241
e 68 741
e 68 733
e 68 779
e 69 884
e 69 967
e 69 204
e 69 980
e 70 375
e 70 997
e 70 566
e 72 663
e 72 92
e 72 985
e 72 536
e 72 818
e 72 746
e 73 551
e 73 962
e 73 220
e 73 238
e 73 435
e 74 421
e 74 325
e 74 523
e 77 421
e 77 550
e 77 937
e 77 350
e 77 218
e 77 95
e 79 684
e 79 482
e 79 93
e 79 949
e 80 481
e 80 127
e 80 463
e 80 682
e 80 223
e 80 428
e 81 432
e 81 335
e 81 475
e 81 351
e 82 767
e 82 597
e 82 493
e 82 303
e 82 704
e 82 228
e 82 105
e 83 230
e 83 559
e 83 561
e 83 541
e 83 856
e 84 117
e 84 866
e 84 743
e 84 916
e 85 923
e 85 89
e 85 890
e 85 820
e 87 162
e 87 538
e 87 649
e 87 592
e 87 726
e 87 476
e 87 943
e 89 807
e 89 829
e 89 588
e 89 727
e 89 387
e 89 355
e 89 786
e 89 213
e 91 818
e 91 648
e 91 916
e 92 695
e 92 817
e 92 208
e 92 149
e 93 601
e 93 210
e 93 208
e 93 902
e 95 981
e 98 156
e 98 789
e 98 749
e 98 483
e 98 213
e 98 928
e 98 182
e 99 409
e 99 914
e 99 120
e 99 665
e 100 174
e 100 305
e 100 487
e 100 196
e 103 897
e 103 459
e 103 762
e 103 947
e 103 583
e 103 548
e 105 446
e 105 258
e 105 464
e 105 974
e 105 530
e 105 543
e 105 558
e 105 851
e 109 725
e 109 501
e 109 364
e 109 170
e 109 502
e 110 838
e 110 608
e 110 452
e 110 128
e 110 810
e 110 816
e 111 906
e 111 354
e 111 178
e 111 603
e 112 509
e 112 523
e 112 191
e 112 633
e 112 625
e 112 431
e 113 295
e 113 233
e 113 832
e 114 666
e 114 859
e 114 167
e 116 899
e 116 506
e 116 202
e 116 126
e 117 206
e 117 226
e 117 915
e 117 462
e 117 122
e 119 222
e 119 582
e 119 218
e 119 940
e 119 501
e 119 955
e 119 210
e 120 621
e 120 319
e 120 765
e 121 386
e 121 961
e 121 579
e 122 625
e 122 245
e 122 417
e 122 573
e 122 740
e 124 839
e 124 704
e 124 313
e 126 351
e 126 379
e 126 333
e 127 354
e 127 247
e 127 469
e 127 485
e 128 847
e 128 951
e 128 683
e 129 166
e 129 978
e 129 448
e 130 461
e 130 765
e 130 627
e 130 509
e 130 401
e 130 778
e 130 524
e 132 760
e 132 911
e 132 665
e 132 663
e 132 300
e 132 586
e 132 138
e 133 480
e 133 509
e 134 432
e 134 588
e 134 495
e 134 308
e 134 359
e 134 861
e 135 236
e 135 667
e 135 139
e 136 478
e 136 887
e 136 453
e 137 340
e 137 876
e 137 510
e 137 886
e 137 789
e 137 298
e 138 150
e 138 682
e 138 956
e 138 983
e 139 984
e 139 626
e 139 721
e 139 689
e 139 377
e 139 277
e 139 707
e 139 309
e 140 868
e 140 483
e 140 838
e 140 447
e 140 509
e 142 915
e 142 254
e 142 451
e 142 380
e 143 401
e 143 390
e 143 351
e 143 784
e 144 338
e 144 993
e 144 490
e 146 160
e 146 240
e 146 839
e 146 589
e 149 551
e 149 393
e 149 847
e 149 558
e 149 832
e 150 952
e 150 446
e 151 970
e 151 506
e 151 400
e 151 398
e 152 354
e 152 312
e 152 446
e 152 780
e 153 355
e 153 337
e 153 250
e 153 703
e 154 708
e 154 659
e 154 813
e 154 252
e 154 244
e 155 922
e 155 784
e 155 158
e 155 265
e 155 829
e 156 741
e 156 626
e 156 949
e 156 806
e 156 886
e 156 754
e 157 176
e 157 609
e 157 647
e 158 295
e 158 933
e 158 561
e 158 819
e 158 308
e 158 326
e 159 817
e 159 310
e 159 573
e 159 170
e 160 996
e 160 578
e 161 381
e 161 838
e 162 654
e 162 428
e 162 551
e 163 927
e 163 652
e 166 592
e 166 782
e 166 315
e 166 835
e 167 552
e 167 627
e 167 797
e 168 338
e 168 526
e 168 859
e 168 501
e 168 760
e 169 746
e 169 802
e 169 420
e 169 540
e 170 390
e 170 902
e 170 483
e 170 453
e 170 855
e 172 553
e 172 435
e 172 316
e 172 989
e 172 484
e 174 447
e 174 544
e 174 805
e 174 965
e 174 643
e 174 683
e 176 585
e 178 548
e 178 726
e 178 952
e 180 223
e 180 522
e 180 323
e 180 826
e 180 253
e 180 581
e 181 681
e 181 296
e 181 542
e 181 357
e 181 497
e 181 454
e 182 550
e 182 231
e 182 748
e 183 780
e 183 558
e 183 711
e 184 502
e 184 416
e 184 230
e 184 374
e 187 920
e 187 850
e 187 969
e 187 309
e 187 405
e 188 345
e 188 584
e 188 322
e 189 499
e 189 775
e 189 891
e 189 996
e 189 277
e 191 253
e 191 672
e 191 438
e 192 387
e 192 615
e 192 405
e 192 597
e 192 656
e 196 227
e 196 885
e 196 701
e 196 730
e 197 766
e 197 384
e 197 339
e 197 937
e 198 384
e 198 636
e 198 699
e 198 614
e 200 526
e 200 686
e 200 792
e 202 814
e 202 822
e 204 424
e 204 332
e 204 615
e 205 941
e 205 915
e 205 544
e 205 712
e 205 970
e 206 379
e 206 448
e 206 705
e 206 539
e 206 962
e 206 402
e 206 424
e 207 791
e 207 376
e 207 955
e 208 810
e 210 431
e 210 807
e 210 400
e 210 966
e 210 265
e 210 613
e 212 574
e 212 272
e 212 298
e 212 358
e 212 861
e 212 591
e 212 236
e 212 360
e 212 260
e 213 482
e 214 382
e 214 228
e 214 741
e 214 897
e 215 997
e 215 599
e 215 691
e 215 314
e 217 899
e 217 736
e 217 357
e 218 817
e 218 418
e 218 246
e 218 312
e 219 448
e 219 376
e 219 441
e 220 722
e 220 362
e 220 295
e 221 795
e 221 495
e 221 955
e 221 521
e 221 303
e 221 307
e 221 257
e 222 725
e 222 295
e 223 503
e 223 827
e 223 369
e 223 772
e 224 606
e 224 821
e 224 793
e 224 974
e 225 739
e 225 634
e 226 792
e 226 826
e 226 967
e 226 762
e 227 424
e 227 483
e 227 737
e 227 985
e 228 907
e 228 696
e 229 312
e 229 285
e 230 868
e 230 587
e 230 932
e 230 469
e 230 663
e 230 430
e 231 934
e 231 360
e 231 308
e 232 774
e 232 233
e 232 294
e 232 950
e 233 604
e 233 811
e 234 462
e 234 785
e 234 880
e 234 261
e 234 521
e 235 621
e 235 451
e 235 543
e 235 515
e 235 506
e 236 582
e 236 679
e 238 529
e 238 264
e 238 965
e 238 502
e 239 691
e 239 953
e 239 559
e 240 972
e 240 588
e 240 931
e 240 590
e 241 400
e 241 978
e 241 659
e 241 821
e 242 749
e 242 941
e 242 489
e 242 478
e 242 326
e 242 269
e 242 928
e 243 608
e 243 331
e 243 692
e 243 956
e 244 594
e 244 808
e 244 679
e 244 306
e 244 948
e 245 956
e 245 373
e 245 448
e 245 991
e 245 400
e 245 568
e 246 255
e 246 493
e 246 504
e 246 416
e 247 358
e 247 437
e 247 933
e 247 627
e 247 519
e 249 874
e 249 665
e 249 972
e 250 986
e 250 316
e 250 411
e 251 987
e 251 477
e 251 441
e 251 254
e 252 438
e 252 510
e 252 430
e 252 611
e 253 676
e 253 955
e 253 293
e 253 524
e 253 808
e 254 325
e 254 611
e 255 933
e 255 669
e 255 353
e 257 675
e 257 361
e 257 907
e 258 880
e 258 762
e 258 726
e 258 407
e 258 814
e 258 755
e 258 904
e 259 561
e 259 550
e 259 595
e 259 544
e 260 591
e 260 825
e 260 557
e 260 962
e 260 484
e 260 824
e 260 879
e 260 442
e 260 510
e 260 451
e 261 847
e 263 340
e 263 989
e 263 925
e 264 377
e 264 442
e 265 719
e 265 432
e 267 705
e 267 556
e 267 493
e 267 647
e 267 863
e 267 423
e 269 389
e 269 833
e 269 715
e 270 646
e 270 948
e 270 754
e 271 795
e 271 634
e 271 504
e 271 899
e 271 291
e 271 737
e 272 379
e 272 891
e 272 445
e 272 747
e 272 280
e 272 793
e 272 641
e 275 558
e 275 916
e 275 525
e 276 487
e 276 405
e 277 833
e 277 610
e 278 409
e 278 524
e 278 501
e 278 338
e 278 369
e 278 318
e 280 595
e 281 512
e 281 646
e 281 880
e 281 747
e 281 507
e 284 833
e 284 499
e 284 389
e 284 832
e 284 751
e 284 824
e 285 764
e 285 855
e 285 502
e 285 787
e 288 338
e 288 620
e 288 826
e 289 477
e 289 556
e 291 533
e 292 822
e 292 993
e 292 897
e 292 377
e 292 464
e 293 314
e 293 803
e 293 312
e 293 744
e 294 382
e 294 512
e 295 541
e 295 784
e 295 965
e 295 691
e 295 568
e 296 611
e 296 811
e 296 673
e 296 497
e 298 972
e 298 732
e 300 313
e 300 652
e 300 862
e 300 489
e 303 490
e 303 425
e 303 822
e 303 364
e 305 439
e 305 997
e 305 343
e 306 712
e 306 594
e 307 388
e 307 690
e 308 641
e 308 543
e 309 316
e 309 377
e 309 796
e 309 489
e 309 600
e 310 756
e 310 368
e 310 778
e 312 407
e 312 417
e 312 326
e 312 967
e 312 593
e 313 594
e 313 947
e 313 635
e 313 688
e 314 704
e 314 436
e 314 751
e 315 746
e 315 645
e 316 925
e 316 610
e 318 722
e 318 901
e 318 328
e 319 763
e 319 473
e 319 596
e 319 487
e 322 814
e 323 855
e 323 597
e 323 487
e 323 393
e 324 649
e 324 458
e 325 957
e 326 516
e 326 705
e 328 563
e 328 961
e 328 940
e 328 695
e 329 684
e 329 951
e 329 679
e 329 765
e 330 670
e 330 400
e 330 500
e 330 667
e 330 386
e 331 430
e 331 859
e 332 743
e 332 614
e 333 852
e 333 448
e 333 976
e 335 407
e 335 707
e 335 338
e 335 937
e 336 927
e 336 882
e 336 379
e 337 647
e 337 534
e 337 976
e 338 519
e 338 659
e 338 923
e 339 992
e 339 429
e 340 989
e 341 885
e 341 492
e 341 819
e 341 799
e 341 359
e 341 550
e 342 667
e 342 929
e 342 422
e 342 810
e 342 641
e 342 764
e 343 842
e 343 818
e 343 366
e 344 605
e 344 993
e 344 949
e 344 481
e 344 722
e 344 396
e 344 802
e 345 861
e 345 748
e 347 757
e 347 551
e 347 402
e 347 359
e 350 549
e 350 575
e 350 731
e 350 950
e 350 659
e 350 646
e 350 583
e 351 827
e 351 922
e 351 965
e 351 566
e 351 689
e 351 443
e 352 816
e 352 512
e 352 557
e 352 862
e 353 387
e 353 714
e 353 566
e 353 787
e 354 730
e 354 976
e 354 587
e 354 429
e 354 679
e 355 470
e 355 363
e 355 423
e 355 583
e 355 476
e 355 689
e 356 587
e 356 825
e 356 802
e 356 451
e 356 763
e 357 980
e 357 775
e 357 744
e 357 481
e 358 979
e 358 556
e 358 506
e 358 441
e 358 675
e 358 898
e 359 712
e 359 634
e 360 406
e 360 711
e 360 865
e 360 736
e 361 827
e 361 813
e 361 689
e 361 449
e 362 957
e 362 516
e 362 828
e 362 486
e 363 667
e 363 367
e 363 826
e 363 929
e 364 589
e 364 879
e 364 955
e 365 720
e 365 426
e 365 511
e 366 933
e 367 950
e 367 651
e 367 878
e 368 462
e 368 429
e 369 665
e 369 700
e 373 733
e 373 884
e 373 512
e 373 679
e 373 923
e 374 689
e 374 856
e 375 543
e 375 793
e 375 449
e 376 791
e 376 935
e 376 736
e 376 449
e 376 939
e 377 976
e 377 445
e 377 586
e 379 477
e 379 609
e 380 820
e 380 749
e 381 426
e 381 956
e 382 876
e 382 481
e 384 409
e 384 659
e 386 566
e 386 502
e 386 579
e 386 417
e 386 597
e 386 515
e 386 750
e 386 529
e 387 805
e 387 720
e 387 606
e 387 906
e 387 813
e 387 685
e 388 903
e 388 902
e 388 987
e 389 971
e 389 513
e 389 876
e 389 429
e 390 512
e 390 519
e 390 690
e 393 574
e 393 990
e 394 675
e 395 739
e 395 791
e 395 426
e 396 637
e 396 865
e 396 674
e 398 530
e 398 600
e 398 611
e 400 898
e 400 708
e 400 747
e 400 836
e 401 574
e 401 796
e 401 950
e 402 814
e 402 766
e 403 557
e 403 987
e 403 665
e 405 938
e 405 892
e 405 632
e 406 787
e 406 939
e 407 811
e 407 923
e 408 782
e 408 647
e 408 510
e 409 701
e 409 524
e 409 814
e 411 682
e 411 655
e 411 587
e 411 826
e 416 890
e 416 482
e 416 688
e 417 444
e 417 851
e 417 828
e 418 659
e 418 548
e 418 867
e 420 729
e 420 899
e 421 473
e 421 521
e 422 634
e 422 725
e 423 903
e 423 741
e 424 601
e 424 592
e 425 654
e 426 607
e 426 651
e 426 542
e 426 431
e 428 951
e 429 654
e 430 597
e 431 453
e 431 589
e 431 642
e 431 461
e 431 626
e 431 464
e 432 700
e 432 876
e 433 484
e 433 879
e 433 714
e 433 505
e 435 907
e 435 992
e 436 475
e 436 731
e 436 676
e 436 871
e 437 737
e 437 458
e 438 481
e 438 818
e 438 715
e 438 590
e 438 750
e 438 935
e 439 920
e 439 534
e 439 816
e 439 961
e 442 613
e 442 764
e 442 583
e 443 620
e 443 995
e 444 445
e 444 784
e 446 469
e 446 561
e 446 447
e 447 838
e 447 552
e 447 640
e 447 649
e 448 828
e 448 789
e 449 983
e 449 747
e 449 859
e 449 579
e 449 525
e 451 829
e 451 683
e 452 655
e 452 840
e 453 649
e 453 844
e 453 768
e 454 579
e 454 666
e 454 757
e 455 523
e 455 915
e 455 779
e 455 669
e 458 720
e 458 744
e 458 932
e 458 903
e 459 813
e 459 642
e 461 893
e 462 495
e 462 733
e 463 988
e 463 820
e 463 822
e 463 914
e 464 640
e 464 996
e 464 803
e 468 480
e 468 681
e 469 984
e 469 907
e 470 860
e 470 744
e 470 901
e 470 740
e 471 778
e 471 599
e 471 676
e 473 487
e 473 862
e 474 704
e 474 564
e 474 548
e 475 934
e 475 991
e 475 943
e 476 756
e 477 795
e 477 891
e 477 691
e 477 953
e 478 575
e 480 519
e 480 740
e 481 715
e 481 694
e 482 890
e 482 842
e 482 559
e 483 911
e 483 619
e 485 816
e 485 669
e 485 681
e 486 523
e 486 584
e 487 690
e 487 652
e 487 513
e 487 785
e 489 764
e 490 600
e 492 986
e 492 694
e 493 669
e 493 539
e 493 509
e 495 699
e 496 544
e 496 670
e 496 703
e 497 947
e 497 860
e 499 501
e 499 581
e 500 784
e 500 797
e 500 598
e 501 950
e 502 558
e 502 822
e 502 805
e 502 643
e 503 813
e 503 625
e 504 583
e 504 599
e 504 715
e 504 751
e 504 757
e 505 733
e 505 754
e 505 739
e 505 593
e 506 840
e 506 598
e 506 856
e 506 540
e 506 596
e 506 986
e 507 933
e 507 949
e 507 653
e 509 526
e 510 829
e 510 591
e 510 761
e 511 568
e 511 892
e 511 611
e 512 925
e 513 787
e 514 803
e 514 867
e 514 767
e 514 732
e 514 962
e 515 850
e 516 674
e 516 817
e 517 968
e 517 939
e 517 649
e 519 969
e 521 960
e 521 563
e 521 694
e 521 708
e 522 607
e 522 948
e 522 811
e 522 636
e 523 672
e 523 529
e 523 718
e 523 731
e 524 936
e 524 806
e 526 684
e 526 686
e 526 729
e 529 582
e 530 903
e 533 851
e 533 699
e 534 604
e 536 768
e 536 907
e 538 894
e 538 904
e 538 644
e 539 983
e 539 732
e 540 558
e 541 942
e 541 704
e 542 598
e 542 736
e 542 781
e 542 699
e 542 992
e 542 644
e 543 794
e 543 626
e 544 987
e 544 884
e 548 899
e 548 653
e 548 890
e 549 674
e 549 995
e 550 874
e 550 807
e 550 948
e 550 866
e 550 810
e 551 863
e 552 974
e 552 743
e 553 743
e 553 673
e 556 865
e 556 611
e 557 915
e 557 792
e 561 640
e 563 720
e 563 960
e 564 631
e 564 951
e 564 634
e 565 685
e 565 583
e 566 932
e 566 652
e 568 822
e 568 965
e 568 802
e 573 708
e 573 744
e 574 637
e 576 835
e 576 578
e 577 680
e 577 579
e 577 727
e 577 726
e 578 794
e 579 680
e 579 796
e 579 882
e 579 855
e 580 619
e 580 704
e 580 884
e 581 940
e 581 813
e 581 621
e 582 818
e 583 781
e 583 876
e 583 819
e 584 597
e 585 794
e 586 768
e 586 711
e 586 752
e 587 834
e 587 699
e 588 744
e 589 816
e 589 594
e 590 632
e 590 705
e 590 976
e 591 942
e 592 654
e 593 654
e 593 760
e 594 811
e 594 601
e 595 643
e 596 828
e 596 797
e 597 926
e 597 708
e 598 805
e 598 874
e 598 603
e 598 827
e 600 696
e 600 838
e 603 946
e 603 814
e 603 885
e 603 707
e 604 605
e 604 878
e 605 651
e 606 913
e 606 674
e 607 775
e 608 632
e 608 904
e 609 872
e 609 649
e 610 730
e 611 785
e 611 708
e 613 656
e 614 862
e 615 733
e 618 960
e 618 711
e 618 764
e 620 961
e 621 768
e 621 785
e 621 932
e 625 749
e 627 817
e 630 690
e 630 947
e 630 764
e 630 825
e 631 688
e 632 775
e 633 665
e 633 827
e 634 726
e 634 987
e 634 835
e 635 806
e 635 980
e 636 948
e 636 991
e 636 700
e 637 886
e 640 891
e 640 830
e 642 714
e 642 840
e 642 727
e 644 855
e 645 913
e 647 913
e 648 768
e 648 894
e 649 737
e 650 713
e 650 754
e 650 752
e 650 876
e 650 803
e 651 680
e 651 755
e 651 901
e 652 678
e 652 936
e 652 897
e 653 825
e 653 990
e 655 943
e 656 915
e 656 799
e 663 893
e 663 699
e 663 993
e 666 833
e 666 860
e 670 791
e 670 996
e 670 993
e 672 890
e 672 945
e 673 941
e 674 968
e 674 784
e 675 750
e 675 871
e 679 838
e 679 761
e 679 894
e 679 695
e 681 849
e 682 767
e 684 865
e 684 718
e 685 747
e 686 907
e 686 779
e 687 816
e 687 785
e 687 967
e 688 974
e 688 948
e 689 893
e 689 983
e 690 797
e 690 966
e 692 893
e 692 721
e 692 931
e 694 851
e 694 828
e 696 847
e 696 814
e 699 985
e 699 933
e 701 969
e 703 985
e 704 948
e 704 951
e 705 868
e 705 943
e 707 720
e 709 719
e 709 792
e 709 791
e 711 887
e 711 818
e 712 902
e 712 838
e 713 974
e 713 748
e 714 818
e 715 740
e 718 757
e 718 854
e 719 817
e 721 939
e 721 844
e 722 932
e 722 952
e 725 834
e 725 866
e 726 901
e 727 939
e 727 926
e 729 936
e 731 766
e 731 791
e 732 953
e 732 892
e 733 981
e 736 751
e 739 787
e 741 891
e 741 956
e 744 797
e 747 821
e 748 754
e 749 936
e 752 957
e 752 782
e 752 916
e 754 844
e 754 980
e 755 926
e 756 838
e 756 938
e 756 968
e 757 774
e 757 968
e 761 976
e 762 779
e 763 787
e 763 805
e 763 862
e 765 789
e 766 971
e 772 879
e 772 840
e 772 808
e 774 794
e 774 894
e 775 929
e 780 850
e 780 839
e 781 826
e 781 911
e 782 995
e 785 966
e 786 879
e 786 876
e 787 903
e 789 811
e 791 893
e 791 852
e 792 966
e 792 978
e 792 944
e 792 886
e 794 904
e 796 802
e 797 874
e 797 942
e 797 814
e 799 820
e 802 991
e 805 852
e 806 871
e 810 956
e 811 972
e 814 851
e 816 879
e 819 989
e 821 826
e 824 828
e 824 981
e 825 881
e 827 899
e 827 879
e 829 878
e 830 836
e 836 991
e 837 996
e 837 882
e 837 961
e 842 922
e 844 935
e 847 892
e 847 986
e 849 862
e 852 916
e 852 953
e 854 948
e 855 979
e 855 913
e 856 898
e 859 946
e 860 993
e 863 866
e 865 906
e 866 897
e 872 971
e 872 890
e 876 890
e 878 944
e 878 884
e 879 996
e 887 936
e 892 962
e 892 915
e 893 950
e 897 933
e 899 957
e 902 927
e 914 965
e 915 941
e 915 923
e 920 988
e 922 984
e 923 979
e 928 952
e 928 988
e 928 986
e 931 992
e 934 935
e 938 945
e 943 997
e 944 949
e 945 953
e 957 990
e 961 967
e 971 974
e 978 984
e 989 997
